Route 1: 0 73 67 53 34 17 81 19 90 5 8 79 42 0
Route 2: 0 31 52 39 23 35 75 2 70 48 41 0
Route 3: 0 14 26 51 20 80 1 66 45 9 4 0
Route 4: 0 47 72 63 56 28 40 25 86 0
Route 5: 0 11 50 44 60 46 38 0
Route 6: 0 6 36 58 77 24 15 43 71 74 100 85 96 0
Route 7: 0 29 68 92 84 21 7 10 94 37 0
Route 8: 0 22 98 78 76 93 69 88 55 33 27 54 30 0
Route 9: 0 62 49 3 12 82 18 0
Route 10: 0 95 57 89 99 65 59 13 64 61 32 87 0
Route 11: 0 16 83 97 91 0
